CMD:
./solvers/bin/cadical --plain --no-reduce -t 1600 ./data/cnfs//vgasim_imgfifo-p105/vgasim_imgfifo-p105.33.cnf

c --- [ banner ] -------------------------------------------------------------
c 
c CaDiCaL SAT Solver
c Copyright (c) 2016-2024
c A. Biere, M. Fleury, N. Froleyks, K. Fazekas, F. Pollitt, T. Faller
c JKU Linz, University of Freiburg, TU Wien
c 
c Version 2.1.3 5296d3d2a9bf48c154ab2acb5e44625776d821bf
c g++ (Gentoo 12.3.1_p20230526 p2) 12.3.1 20230526 -Wall -Wextra -O3 -DNDEBUG
c Sat Aug 9 07:26:21 PDT 2025 Linux cedar2.int.cedar.computecanada.ca 5.14.0-362.24.2.el9_3.x86_64 x86_64
c 
c --- [ limit ] --------------------------------------------------------------
c 
c setting time limit to 1600 seconds real time (due to '-t 1600')
c 
c --- [ parsing input ] ------------------------------------------------------
c 
c reading DIMACS file from './data/cnfs//vgasim_imgfifo-p105/vgasim_imgfifo-p105.33.cnf'
c opening file to read './data/cnfs//vgasim_imgfifo-p105/vgasim_imgfifo-p105.33.cnf'
c found 'p cnf 161771 465970' header
c parsed 465970 clauses in 0.07 seconds process time
c 
c --- [ options ] ------------------------------------------------------------
c 
c   --compact=false                (different from default 'true')
c   --decompose=false              (different from default 'true')
c   --deduplicate=false            (different from default 'true')
c   --elim=false                   (different from default 'true')
c   --probe=false                  (different from default 'true')
c   --reduce=false                 (different from default 'true')
c   --subsume=false                (different from default 'true')
c   --ternary=false                (different from default 'true')
c   --transred=false               (different from default 'true')
c   --vivify=false                 (different from default 'true')
c 
c --- [ solving ] ------------------------------------------------------------
c 
c time measured in process time since initialization
c 
c  seconds  reductions  redundant  irredundant
c         MB    restarts       trail       variables
c          level   conflicts       glue          remaining
c 
c *  0.07 73  0 0   0    0    0  0% 0 430239 125975 78%
c {  0.08 74  0 0   0    0    0  0% 0 430239 125975 78%
c i  0.08 74 46 0   0   17   14 26% 3 430239 125961 78%
c i  0.10 74 59 0  11  132   91 29% 10 430239 125938 78%
c i  0.10 74 59 0  11  133   91 29% 10 430239 125751 78%
c i  0.10 74 58 0  11  134   91 29% 10 430239 125623 78%
c i  0.10 74 58 0  12  135   91 29% 10 430239 125620 78%
c i  0.10 74 57 0  12  136   91 28% 10 430239 125609 78%
c i  0.10 74 53 0  15  154  104 28% 9 430239 124355 77%
c i  0.10 74 52 0  15  158  107 28% 9 430239 124352 77%
c i  0.10 74 52 0  15  159  107 28% 9 430239 124340 77%
c i  0.10 74 51 0  15  160  107 28% 9 430239 124326 77%
c i  0.10 74 50 0  15  163  107 28% 9 430239 123366 76%
c i  0.11 75 42 0  18  358  260 29% 7 430239 122837 76%
c i  0.11 75 42 0  18  363  261 29% 7 430239 122562 76%
c i  0.11 75 40 0  18  383  278 29% 7 430239 122498 76%
c i  0.11 75 39 0  18  391  283 29% 7 430239 122407 76%
c i  0.11 75 39 0  18  396  286 29% 7 430239 122312 76%
c i  0.11 75 39 0  18  400  289 29% 7 430239 122299 76%
c i  0.11 75 39 0  18  402  290 29% 7 430239 122291 76%
c 
c  seconds  reductions  redundant  irredundant
c         MB    restarts       trail       variables
c          level   conflicts       glue          remaining
c 
c i  0.11 75 39 0  18  404  291 29% 7 430239 122262 76%
c i  0.11 75 39 0  18  405  291 29% 6 430239 121109 75%
c i  0.11 75 39 0  18  406  291 29% 6 430239 121106 75%
c i  0.11 75 39 0  18  408  291 29% 6 430239 120956 75%
c i  0.12 75 39 0  18  433  313 30% 7 430239 120856 75%
c i  0.12 75 39 0  18  434  313 30% 6 430239 120718 75%
c i  0.12 75 38 0  18  486  354 30% 7 430239 120686 75%
c i  0.12 75 37 0  18  489  356 30% 7 430239 120672 75%
c i  0.13 75 35 0  23  602  424 30% 7 430239 120032 74%
c i  0.13 75 34 0  23  603  424 30% 7 430239 119745 74%
c i  0.13 75 34 0  23  608  427 30% 6 430239 119714 74%
c i  0.13 75 37 0  23  627  445 30% 6 430239 119701 74%
c i  0.14 75 40 0  23  658  472 30% 6 430239 119623 74%
c i  0.14 75 41 0  23  662  474 30% 6 430239 119567 74%
c i  0.14 75 43 0  24  703  508 30% 6 430239 119415 74%
c i  0.15 75 40 0  30  776  559 30% 6 430239 119316 74%
c i  0.15 75 39 0  31  799  577 30% 6 430239 119315 74%
c }  0.16 75 37 0  31  846  597 30% 6 430239 116473 72%
c 0  0.16 75 37 0  31  846  597 30% 6 430239 116473 72%
c 
c --- [ result ] -------------------------------------------------------------
c 
s UNSATISFIABLE
c 
c --- [ run-time profiling ] -------------------------------------------------
c 
c process time taken by individual solving procedures
c (percentage relative to process time for solving)
c 
c         0.09   99.89% search
c         0.08   92.34% unstable
c         0.07   81.39% parse
c         0.01    7.50% lucky
c         0.00    0.00% simplify
c   =================================
c         0.09   54.96% solve
c 
c last line shows process time for solving
c (percentage relative to total process time)
c 
c --- [ statistics ] ---------------------------------------------------------
c 
c chronological:               354        41.84 %  of conflicts
c conflicts:                   846      9923.17    per second
c decisions:                  2291     26872.32    per second
c fixed:                     45251        27.97 %  of all variables
c learned:                     755        89.24 %  per conflict
c learned_lits:              23199       100.00 %  learned literals
c minimized:                     0         0.00 %  learned literals
c shrunken:                   6114        26.35 %  learned literals
c minishrunken:               2910        12.54 %  learned literals
c otfs:                         18         2.13 %  of conflict
c propagations:            1951172        22.89 M  per second
c restarts:                     31        27.29    interval
c subsumed:                    116         0.03 %  of all clauses
c strengthened:                 17         0.00 %  of all clauses
c 
c seconds are measured in process time for solving
c 
c --- [ resources ] ----------------------------------------------------------
c 
c total process time since initialization:         0.16    seconds
c total real time since initialization:            0.16    seconds
c maximum resident set size of process:           73.65    MB
c 
c --- [ shutting down ] ------------------------------------------------------
c 
c exit 20
